(set-logic QF_S)
(declare-fun var0 () String)
(declare-fun var1 () Int)
(declare-fun var2 () Int)
(declare-fun var3 () String)
(declare-fun var4 () String)
(declare-fun var5 () String)
(declare-fun var6 () Int)
(declare-fun var7 () Int)
(assert (str.contains (str.substr var0 var1 var2) (str.replace var3 var4 var5)))
(assert (<= (str.to.int var3) (str.to.int var3)))
(assert (<= (str.indexof var4 var3 var6) (str.indexof "LAUsz:" var5 3)))
(assert (str.in.re (str.at var5 var7) (re.* re.allchar)))
(check-sat)